
Log started (V11.0.0) Wed May 14 17:25:51 2008

Tried aggregator 1 time.
Reduced MIP has 150 rows, 5001 columns, and 10050 nonzeros.
Presolve time =    0.05 sec.
Clique table members: 100.
MIP emphasis: balance optimality and feasibility.
MIP search method: dynamic search.
Parallel mode: none, using 1 thread.
Root relaxation solution time =    0.16 sec.

        Nodes                                         Cuts/
   Node  Left     Objective  IInf  Best Integer     Best Node    ItCnt     Gap

*     0+    0                        10169.0000       58.1903      580   99.43%
*     0+    0                          102.0000       58.1903      580   42.95%
      0     0       59.0000    82      102.0000      Fract: 3      651   42.16%
*     0+    0                          101.0000       59.0000      651   41.58%
      0     0       65.5737    96      101.0000      Cuts: 45     1130   35.08%
*     0+    0                           97.0000       65.5737     1130   32.40%
      0     0       65.7158    94       97.0000      Cuts: 12     1198   32.25%
*     0+    0                           86.0000       65.7158     1198   23.59%
      0     0       66.0600    85       86.0000      Cuts: 11     1240   23.19%
*     0+    0                           85.0000       66.0600     1240   22.28%
      0     0       66.4588    83       85.0000      Cuts: 12     1291   21.81%
*     0+    0                           83.0000       66.4588     1291   19.93%
      0     0       66.7724    85       83.0000       Cuts: 9     1326   19.55%
      0     0       66.7724    79       83.0000       Cuts: 3     1334   19.55%
*     0+    0                           81.0000       66.7724     1334   17.56%
*     0+    0                           79.0000       66.7724     1334   15.48%
*     0+    0                           78.0000       66.7724     1334   14.39%
*     0+    0                           77.0000       66.7724     1334   13.28%
*     0+    0                           76.0000       66.7724     1334   12.14%

Repeating presolve.
Tried aggregator 1 time.
MIP Presolve eliminated 13 rows and 1839 columns.
MIP Presolve modified 1186 coefficients.
Reduced MIP has 137 rows, 3162 columns, and 6359 nonzeros.
Tried aggregator 1 time.
Represolve time =    0.17 sec.
Clique table members: 364.
MIP emphasis: balance optimality and feasibility.
MIP search method: dynamic search.
Parallel mode: none, using 1 thread.
Root relaxation solution time =    0.08 sec.

        Nodes                                         Cuts/
   Node  Left     Objective  IInf  Best Integer     Best Node    ItCnt     Gap

      0     0       68.8476    74       76.0000       68.8476      648    9.41%
      0     2       69.0000    64       76.0000       68.8476      648    9.41%
    100    95       71.0000    39       76.0000       70.0000     1839    7.89%
    200   164        cutoff             76.0000       70.0000     3169    7.89%
    300   237    infeasible             76.0000       70.0000     4275    7.89%
    400   324       75.0000    32       76.0000       71.0000     5407    6.58%
    500   395       75.0000    28       76.0000       71.0000     7142    6.58%
    600   415       74.0000     9       76.0000       73.0000     9423    3.95%
    700   425       75.0000    23       76.0000       73.0000    11404    3.95%
    800   426       74.0000    24       76.0000       73.0000    12829    3.95%
    900   435    infeasible             76.0000       73.0000    14453    3.95%
   1000   413       75.0000    23       76.0000       73.0000    15970    3.95%
Elapsed time =  12.66 sec. (tree size =  1.41 MB, solutions = 12)
   1100   427       74.0000    18       76.0000       73.0000    17158    3.95%
   1200   512       74.0000    21       76.0000       73.0000    18506    3.95%
*  1291+  462                           75.0000       73.0000    19504    2.67%
   1300   467       74.0000    20       75.0000       73.0000    19620    2.67%
   1400   534       74.0000    21       75.0000       73.0000    21471    2.67%
   1500   576       74.0000    32       75.0000       73.0000    22943    2.67%
   1600   606    infeasible             75.0000       73.0000    24592    2.67%
   1700   669       74.0000    16       75.0000       73.0000    26197    2.67%
   1800   767       74.0000    21       75.0000       73.0000    27861    2.67%
   1900   850       74.0000    22       75.0000       73.0624    29434    2.58%
   2000   887       74.0000    20       75.0000       74.0000    31590    1.33%
Elapsed time =  18.58 sec. (tree size =  3.28 MB, solutions = 13)
   2100   981       74.0000     6       75.0000       74.0000    32631    1.33%
   2200  1010       74.0000    42       75.0000       74.0000    34540    1.33%
   2300  1087       74.0000    14       75.0000       74.0000    36019    1.33%
   2400  1157       74.0000    28       75.0000       74.0000    37293    1.33%
   2500  1234    infeasible             75.0000       74.0000    38292    1.33%
   2600  1291    infeasible             75.0000       74.0000    39590    1.33%
   2700  1309    infeasible             75.0000       74.0000    41177    1.33%
   2800  1327       74.0000    19       75.0000       74.0000    42722    1.33%
   2900  1375    infeasible             75.0000       74.0000    43978    1.33%
   3000  1459       74.0000    21       75.0000       74.0000    44786    1.33%
Elapsed time =  23.19 sec. (tree size =  5.68 MB, solutions = 13)
   3100  1509       74.0000    14       75.0000       74.0000    46287    1.33%
   3200  1543       74.0000    21       75.0000       74.0000    48021    1.33%
   3300  1587    infeasible             75.0000       74.0000    50308    1.33%
   3400  1593       74.0000     8       75.0000       74.0000    52805    1.33%
   3500  1671       74.0000    19       75.0000       74.0000    53997    1.33%
   3600  1764       74.0000    12       75.0000       74.0000    55234    1.33%
   3700  1816       74.0000    17       75.0000       74.0000    56665    1.33%
   3800  1886       74.0000     9       75.0000       74.0000    57941    1.33%
   3900  1958       74.0000    11       75.0000       74.0000    59177    1.33%
   4000  2032       74.0000    15       75.0000       74.0000    60787    1.33%
Elapsed time =  27.77 sec. (tree size =  8.17 MB, solutions = 13)
   4100  2104       74.0000    22       75.0000       74.0000    61889    1.33%
   4200  2162    infeasible             75.0000       74.0000    63125    1.33%
   4300  2252       74.0000    24       75.0000       74.0000    63843    1.33%
   4400  2333       74.0000    20       75.0000       74.0000    64787    1.33%
   4500  2399    infeasible             75.0000       74.0000    65660    1.33%
   4600  2454       74.0000    18       75.0000       74.0000    66619    1.33%
   4700  2516    infeasible             75.0000       74.0000    67798    1.33%
   4800  2567       74.0000    16       75.0000       74.0000    69168    1.33%
   4900  2633       74.0000    10       75.0000       74.0000    70098    1.33%
   5000  2669       74.0000     7       75.0000       74.0000    71210    1.33%
Elapsed time =  31.25 sec. (tree size = 11.09 MB, solutions = 13)
   5100  2695    infeasible             75.0000       74.0000    73053    1.33%
   5200  2769       74.0000    30       75.0000       74.0000    74069    1.33%
   5300  2821       74.0000    24       75.0000       74.0000    75766    1.33%
   5400  2864       74.0000    33       75.0000       74.0000    77299    1.33%
   5500  2894       74.0000     8       75.0000       74.0000    78900    1.33%
   5600  2992       74.0000    28       75.0000       74.0000    79841    1.33%
   5700  3038    infeasible             75.0000       74.0000    81331    1.33%
   5800  3074       74.0000    22       75.0000       74.0000    83379    1.33%
   5900  3158       74.0000    26       75.0000       74.0000    84610    1.33%
   6000  3240       74.0000    11       75.0000       74.0000    85475    1.33%
Elapsed time =  35.55 sec. (tree size = 13.79 MB, solutions = 13)
   6100  3322       74.0000    13       75.0000       74.0000    86305    1.33%
   6200  3412       74.0000    20       75.0000       74.0000    86971    1.33%
   6300  3508       74.0000    17       75.0000       74.0000    87513    1.33%
   6400  3596       74.0000    15       75.0000       74.0000    88170    1.33%
   6500  3684       74.0000    20       75.0000       74.0000    88963    1.33%
   6600  3752       74.0000    15       75.0000       74.0000    90074    1.33%
   6700  3828       74.0000    22       75.0000       74.0000    91064    1.33%
   6800  3924       74.0000    14       75.0000       74.0000    91525    1.33%
   6900  4002       74.0000    25       75.0000       74.0000    92292    1.33%
   7000  4062       74.0000    13       75.0000       74.0000    93350    1.33%
Elapsed time =  38.67 sec. (tree size = 17.73 MB, solutions = 13)
   7100  4156       74.0000    30       75.0000       74.0000    93970    1.33%
*  7141+    1                           74.0000       74.0000    94407    0.00%

Clique cuts applied:  1
Cover cuts applied:  121
Implied bound cuts applied:  24
Mixed integer rounding cuts applied:  17
Zero-half cuts applied:  2
Gomory fractional cuts applied:  2

Solution pool: 14 solutions saved.

MIP - Integer optimal solution:  Objective = 7.4000000000e+001
Solution time =   39.16 sec.  Iterations = 94407  Nodes = 7141


Incumbent solution
Variable Name           Solution Value
Cmax                         74.000000
X_1_40                        1.000000
X_2_25                        1.000000
X_3_49                        1.000000
X_4_15                        1.000000
X_5_23                        1.000000
X_6_36                        1.000000
X_7_5                         1.000000
X_8_25                        1.000000
X_9_30                        1.000000
X_10_36                       1.000000
X_11_49                       1.000000
X_12_22                       1.000000
X_13_17                       1.000000
X_14_31                       1.000000
X_15_8                        1.000000
X_16_6                        1.000000
X_17_15                       1.000000
X_18_20                       1.000000
X_19_17                       1.000000
X_20_35                       1.000000
X_21_25                       1.000000
X_22_34                       1.000000
X_23_3                        1.000000
X_24_36                       1.000000
X_25_9                        1.000000
X_26_25                       1.000000
X_27_28                       1.000000
X_28_15                       1.000000
X_29_49                       1.000000
X_30_46                       1.000000
X_31_36                       1.000000
X_32_41                       1.000000
X_33_49                       1.000000
X_34_31                       1.000000
X_35_47                       1.000000
X_36_36                       1.000000
X_37_17                       1.000000
X_38_49                       1.000000
X_39_41                       1.000000
X_40_10                       1.000000
X_41_36                       1.000000
X_42_2                        1.000000
X_43_2                        1.000000
X_44_22                       1.000000
X_45_7                        1.000000
X_46_33                       1.000000
X_47_18                       1.000000
X_48_27                       1.000000
X_49_30                       1.000000
X_50_45                       1.000000
X_51_36                       1.000000
X_52_17                       1.000000
X_53_49                       1.000000
X_54_49                       1.000000
X_55_7                        1.000000
X_56_18                       1.000000
X_57_25                       1.000000
X_58_19                       1.000000
X_59_49                       1.000000
X_60_36                       1.000000
X_61_40                       1.000000
X_62_49                       1.000000
X_63_36                       1.000000
X_64_49                       1.000000
X_65_36                       1.000000
X_66_41                       1.000000
X_67_17                       1.000000
X_68_10                       1.000000
X_69_34                       1.000000
X_70_21                       1.000000
X_71_49                       1.000000
X_72_25                       1.000000
X_73_49                       1.000000
X_74_17                       1.000000
X_75_36                       1.000000
X_76_36                       1.000000
X_77_43                       1.000000
X_78_47                       1.000000
X_79_49                       1.000000
X_80_44                       1.000000
X_81_24                       1.000000
X_82_25                       1.000000
X_83_40                       1.000000
X_84_31                       1.000000
X_85_15                       1.000000
X_86_4                        1.000000
X_87_25                       1.000000
X_88_22                       1.000000
X_89_36                       1.000000
X_90_49                       1.000000
X_91_37                       1.000000
X_92_10                       1.000000
X_93_38                       1.000000
X_94_15                       1.000000
X_95_25                       1.000000
X_96_22                       1.000000
X_97_10                       1.000000
X_98_36                       1.000000
X_99_44                       1.000000
X_100_47                      1.000000
All other variables in the range 1-5001 are 0.
